5422.93
0 28 31 32 17 20 18 15 14 25 12 22 24 16 19 11 13 21 9 8 1 2 7 5 3 4 10 0
0 30 33 27 26 23 0
0 29 39 36 45 48 34 41 38 43 37 40 46 35 51 54 0
0 68 65 49 47 42 44 55 57 52 61 50 0
0 70 66 69 67 72 71 77 75 63 60 62 59 58 0
0 85 83 84 82 81 90 91 87 136 79 76 80 73 78 0
0 132 124 89 86 88 92 120 108 109 116 104 105 100 99 101 102 106 96 98 95 94 93 6 0
0 118 115 110 103 107 97 0
0 129 123 111 119 117 112 113 0
0 114 131 121 141 0
0 133 134 127 122 128 126 125 144 0
0 130 137 146 149 140 139 145 74 135 0
0 138 142 148 64 53 150 56 0
0 143 147 0
